40
    48    54    68    13    77   100    22    69    65    31    83    74     3    26    96    72    14    17    85     7    48    89    50    30    82    80    72    91    23    81     7    47     4    35    91    55    87    41    39    76
     3     4     8     9     7     5     4    10     5     3     4     3     9    10     6     3     2     8     3     4     5     2     1     2     6     5    10     1     3     4     2    10     2     4     4     7     7     4     5     1
  1579   287  1273  2303  1093  2152  1853   299  1321  1075  1570   957  1683   718   697  2018  2311  1762  1056   764  1694  1301  2055  1484  1854  1925  2096   344  1691   351  1064  1454  2161   807  1741  1745  1769  1515  1533   580
